p edge 1935 1900
e 1 2
e 1 3
e 1 4
e 1 5
e 1 6
e 1 7
e 1 8
e 1 9
e 1 10
e 1 11
e 1 12
e 1 13
e 1 14
e 1 15
e 1 16
e 1 17
e 1 18
e 1 19
e 1 20
e 1 21
e 1 22
e 1 23
e 1 24
e 1 25
e 1 26
e 1 27
e 1 28
e 1 29
e 1 30
e 1 31
e 1 32
e 1 33
e 1 34
e 1 35
e 1 36
e 1 37
e 1 38
e 1 39
e 1 40
e 1 41
e 1 42
e 1 43
e 1 44
e 1 45
e 1 46
e 1 47
e 1 48
e 1 49
e 1 50
e 1 51
e 1 52
e 1 53
e 1 54
e 1 55
e 1 56
e 1 57
e 1 58
e 1 59
e 1 60
e 1 61
e 1 62
e 1 63
e 1 64
e 1 65
e 1 66
e 1 67
e 1 68
e 1 69
e 1 70
e 1 71
e 1 72
e 1 73
e 1 74
e 1 75
e 1 76
e 1 77
e 1 78
e 1 79
e 1 80
e 1 81
e 1 82
e 1 83
e 1 84
e 1 85
e 1 86
e 1 87
e 1 88
e 1 89
e 1 90
e 1 91
e 1 92
e 1 93
e 1 94
e 1 95
e 1 96
e 97 98
e 97 99
e 97 100
e 97 101
e 97 102
e 97 103
e 97 104
e 97 105
e 97 106
e 97 107
e 97 108
e 97 109
e 97 110
e 97 111
e 112 113
e 112 114
e 112 115
e 112 116
e 112 117
e 112 118
e 112 119
e 112 120
e 112 121
e 112 122
e 112 123
e 112 124
e 112 125
e 112 126
e 112 127
e 112 128
e 112 129
e 112 130
e 112 131
e 112 132
e 112 133
e 112 134
e 112 135
e 112 136
e 112 137
e 112 138
e 112 139
e 112 140
e 112 141
e 112 142
e 112 143
e 112 144
e 112 145
e 112 146
e 112 147
e 112 148
e 112 149
e 112 150
e 112 151
e 112 152
e 112 153
e 112 154
e 112 155
e 112 156
e 112 157
e 112 158
e 112 159
e 112 160
e 112 161
e 112 162
e 112 163
e 112 164
e 112 165
e 112 166
e 112 167
e 112 168
e 112 169
e 112 170
e 112 171
e 112 172
e 112 173
e 112 174
e 112 175
e 112 176
e 112 177
e 112 178
e 112 179
e 112 180
e 112 181
e 112 182
e 112 183
e 112 184
e 112 185
e 112 186
e 112 187
e 112 188
e 189 190
e 189 191
e 189 192
e 189 193
e 189 194
e 189 195
e 189 196
e 189 197
e 189 198
e 189 199
e 189 200
e 189 201
e 189 202
e 189 203
e 189 204
e 189 205
e 189 206
e 189 207
e 189 208
e 189 209
e 189 210
e 189 211
e 189 212
e 189 213
e 189 214
e 189 215
e 189 216
e 189 217
e 189 218
e 189 219
e 189 220
e 189 221
e 189 222
e 189 223
e 189 224
e 189 225
e 189 226
e 189 227
e 189 228
e 189 229
e 189 230
e 189 231
e 189 232
e 189 233
e 189 234
e 189 235
e 189 236
e 189 237
e 189 238
e 189 239
e 189 240
e 189 241
e 189 242
e 189 243
e 189 244
e 189 245
e 189 246
e 189 247
e 189 248
e 189 249
e 189 250
e 189 251
e 189 252
e 189 253
e 189 254
e 189 255
e 189 256
e 189 257
e 189 258
e 189 259
e 189 260
e 189 261
e 189 262
e 189 263
e 189 264
e 189 265
e 189 266
e 189 267
e 189 268
e 189 269
e 189 270
e 189 271
e 189 272
e 189 273
e 189 274
e 189 275
e 189 276
e 189 277
e 278 279
e 278 280
e 278 281
e 278 282
e 278 283
e 278 284
e 278 285
e 278 286
e 278 287
e 278 288
e 278 289
e 278 290
e 278 291
e 278 292
e 278 293
e 278 294
e 278 295
e 278 296
e 278 297
e 278 298
e 278 299
e 278 300
e 278 301
e 278 302
e 278 303
e 278 304
e 278 305
e 278 306
e 278 307
e 278 308
e 278 309
e 278 310
e 278 311
e 278 312
e 278 313
e 278 314
e 278 315
e 278 316
e 278 317
e 278 318
e 278 319
e 278 320
e 278 321
e 278 322
e 278 323
e 278 324
e 278 325
e 278 326
e 278 327
e 278 328
e 278 329
e 278 330
e 278 331
e 278 332
e 278 333
e 278 334
e 278 335
e 278 336
e 278 337
e 278 338
e 278 339
e 278 340
e 278 341
e 278 342
e 278 343
e 278 344
e 278 345
e 278 346
e 278 347
e 278 348
e 278 349
e 278 350
e 278 351
e 278 352
e 278 353
e 278 354
e 278 355
e 278 356
e 278 357
e 278 358
e 278 359
e 360 361
e 360 362
e 360 363
e 360 364
e 360 365
e 360 366
e 360 367
e 360 368
e 360 369
e 360 370
e 360 371
e 360 372
e 360 373
e 360 374
e 360 375
e 360 376
e 360 377
e 360 378
e 360 379
e 360 380
e 360 381
e 360 382
e 360 383
e 360 384
e 360 385
e 360 386
e 360 387
e 388 389
e 388 390
e 388 391
e 388 392
e 388 393
e 388 394
e 388 395
e 388 396
e 388 397
e 388 398
e 388 399
e 388 400
e 388 401
e 388 402
e 388 403
e 388 404
e 388 405
e 388 406
e 388 407
e 388 408
e 388 409
e 388 410
e 388 411
e 388 412
e 388 413
e 388 414
e 388 415
e 388 416
e 388 417
e 388 418
e 388 419
e 388 420
e 388 421
e 388 422
e 388 423
e 388 424
e 388 425
e 388 426
e 388 427
e 388 428
e 388 429
e 388 430
e 388 431
e 388 432
e 388 433
e 388 434
e 388 435
e 388 436
e 388 437
e 388 438
e 388 439
e 388 440
e 388 441
e 388 442
e 388 443
e 388 444
e 388 445
e 388 446
e 447 448
e 447 449
e 447 450
e 447 451
e 447 452
e 447 453
e 447 454
e 447 455
e 447 456
e 447 457
e 447 458
e 447 459
e 447 460
e 447 461
e 447 462
e 447 463
e 447 464
e 447 465
e 447 466
e 447 467
e 447 468
e 447 469
e 447 470
e 447 471
e 447 472
e 447 473
e 447 474
e 447 475
e 447 476
e 447 477
e 447 478
e 447 479
e 447 480
e 447 481
e 447 482
e 447 483
e 447 484
e 447 485
e 447 486
e 447 487
e 447 488
e 447 489
e 447 490
e 447 491
e 447 492
e 447 493
e 447 494
e 495 496
e 495 497
e 495 498
e 495 499
e 495 500
e 495 501
e 495 502
e 495 503
e 495 504
e 495 505
e 495 506
e 495 507
e 495 508
e 495 509
e 495 510
e 495 511
e 495 512
e 495 513
e 495 514
e 495 515
e 495 516
e 495 517
e 495 518
e 495 519
e 495 520
e 495 521
e 495 522
e 495 523
e 495 524
e 495 525
e 495 526
e 495 527
e 495 528
e 495 529
e 495 530
e 495 531
e 495 532
e 495 533
e 495 534
e 495 535
e 495 536
e 495 537
e 495 538
e 495 539
e 495 540
e 495 541
e 495 542
e 495 543
e 495 544
e 495 545
e 495 546
e 495 547
e 495 548
e 495 549
e 495 550
e 495 551
e 495 552
e 495 553
e 495 554
e 495 555
e 495 556
e 495 557
e 495 558
e 495 559
e 495 560
e 495 561
e 495 562
e 495 563
e 495 564
e 495 565
e 566 567
e 566 568
e 566 569
e 566 570
e 566 571
e 566 572
e 566 573
e 566 574
e 566 575
e 566 576
e 566 577
e 566 578
e 566 579
e 566 580
e 566 581
e 566 582
e 583 584
e 583 585
e 583 586
e 583 587
e 583 588
e 583 589
e 583 590
e 583 591
e 583 592
e 583 593
e 583 594
e 583 595
e 583 596
e 583 597
e 583 598
e 583 599
e 583 600
e 583 601
e 583 602
e 583 603
e 583 604
e 583 605
e 583 606
e 583 607
e 583 608
e 583 609
e 583 610
e 583 611
e 583 612
e 583 613
e 583 614
e 583 615
e 583 616
e 583 617
e 583 618
e 583 619
e 583 620
e 583 621
e 583 622
e 583 623
e 583 624
e 583 625
e 583 626
e 583 627
e 583 628
e 583 629
e 583 630
e 583 631
e 583 632
e 583 633
e 583 634
e 583 635
e 583 636
e 583 637
e 583 638
e 583 639
e 583 640
e 583 641
e 583 642
e 583 643
e 583 644
e 583 645
e 583 646
e 583 647
e 583 648
e 583 649
e 583 650
e 583 651
e 583 652
e 583 653
e 583 654
e 583 655
e 583 656
e 583 657
e 583 658
e 583 659
e 583 660
e 583 661
e 583 662
e 583 663
e 583 664
e 665 666
e 665 667
e 665 668
e 665 669
e 665 670
e 665 671
e 665 672
e 665 673
e 665 674
e 665 675
e 665 676
e 665 677
e 665 678
e 665 679
e 665 680
e 665 681
e 665 682
e 665 683
e 665 684
e 665 685
e 686 687
e 686 688
e 686 689
e 686 690
e 686 691
e 686 692
e 686 693
e 686 694
e 686 695
e 686 696
e 686 697
e 686 698
e 686 699
e 700 701
e 700 702
e 700 703
e 700 704
e 700 705
e 700 706
e 700 707
e 700 708
e 700 709
e 700 710
e 700 711
e 700 712
e 700 713
e 700 714
e 700 715
e 700 716
e 700 717
e 700 718
e 700 719
e 700 720
e 700 721
e 700 722
e 700 723
e 700 724
e 700 725
e 700 726
e 700 727
e 700 728
e 700 729
e 700 730
e 700 731
e 700 732
e 700 733
e 700 734
e 700 735
e 700 736
e 700 737
e 700 738
e 700 739
e 700 740
e 700 741
e 700 742
e 700 743
e 700 744
e 700 745
e 700 746
e 700 747
e 700 748
e 749 750
e 749 751
e 749 752
e 749 753
e 749 754
e 749 755
e 749 756
e 749 757
e 749 758
e 749 759
e 749 760
e 749 761
e 749 762
e 749 763
e 749 764
e 749 765
e 749 766
e 749 767
e 749 768
e 749 769
e 749 770
e 749 771
e 749 772
e 749 773
e 749 774
e 749 775
e 749 776
e 749 777
e 749 778
e 749 779
e 749 780
e 749 781
e 749 782
e 749 783
e 749 784
e 749 785
e 749 786
e 749 787
e 749 788
e 749 789
e 749 790
e 749 791
e 749 792
e 749 793
e 749 794
e 749 795
e 796 797
e 796 798
e 796 799
e 796 800
e 796 801
e 796 802
e 796 803
e 796 804
e 796 805
e 796 806
e 796 807
e 796 808
e 796 809
e 796 810
e 796 811
e 796 812
e 796 813
e 796 814
e 796 815
e 796 816
e 796 817
e 796 818
e 796 819
e 796 820
e 796 821
e 796 822
e 796 823
e 796 824
e 796 825
e 796 826
e 796 827
e 828 829
e 828 830
e 828 831
e 828 832
e 828 833
e 828 834
e 828 835
e 828 836
e 828 837
e 828 838
e 828 839
e 828 840
e 828 841
e 828 842
e 828 843
e 828 844
e 828 845
e 828 846
e 828 847
e 828 848
e 828 849
e 828 850
e 828 851
e 828 852
e 828 853
e 828 854
e 828 855
e 828 856
e 828 857
e 828 858
e 828 859
e 828 860
e 828 861
e 828 862
e 828 863
e 828 864
e 828 865
e 828 866
e 828 867
e 828 868
e 828 869
e 828 870
e 828 871
e 828 872
e 828 873
e 828 874
e 828 875
e 828 876
e 828 877
e 828 878
e 879 880
e 879 881
e 879 882
e 879 883
e 879 884
e 879 885
e 879 886
e 879 887
e 879 888
e 879 889
e 879 890
e 879 891
e 879 892
e 879 893
e 879 894
e 879 895
e 879 896
e 879 897
e 879 898
e 879 899
e 879 900
e 879 901
e 879 902
e 879 903
e 879 904
e 879 905
e 879 906
e 879 907
e 879 908
e 879 909
e 879 910
e 879 911
e 879 912
e 879 913
e 879 914
e 879 915
e 879 916
e 879 917
e 879 918
e 879 919
e 879 920
e 879 921
e 879 922
e 879 923
e 879 924
e 879 925
e 879 926
e 879 927
e 879 928
e 879 929
e 879 930
e 879 931
e 879 932
e 879 933
e 879 934
e 879 935
e 879 936
e 879 937
e 879 938
e 879 939
e 879 940
e 879 941
e 879 942
e 879 943
e 879 944
e 879 945
e 879 946
e 879 947
e 879 948
e 879 949
e 879 950
e 879 951
e 879 952
e 879 953
e 879 954
e 879 955
e 879 956
e 879 957
e 879 958
e 879 959
e 879 960
e 879 961
e 879 962
e 879 963
e 964 965
e 964 966
e 964 967
e 964 968
e 964 969
e 964 970
e 964 971
e 964 972
e 964 973
e 964 974
e 964 975
e 964 976
e 964 977
e 964 978
e 964 979
e 964 980
e 964 981
e 964 982
e 964 983
e 964 984
e 964 985
e 964 986
e 964 987
e 964 988
e 964 989
e 964 990
e 964 991
e 964 992
e 964 993
e 964 994
e 964 995
e 964 996
e 964 997
e 964 998
e 964 999
e 964 1000
e 964 1001
e 964 1002
e 964 1003
e 964 1004
e 964 1005
e 964 1006
e 964 1007
e 964 1008
e 964 1009
e 964 1010
e 964 1011
e 964 1012
e 964 1013
e 964 1014
e 964 1015
e 964 1016
e 964 1017
e 964 1018
e 964 1019
e 964 1020
e 964 1021
e 964 1022
e 964 1023
e 964 1024
e 964 1025
e 964 1026
e 964 1027
e 964 1028
e 964 1029
e 964 1030
e 964 1031
e 964 1032
e 964 1033
e 964 1034
e 964 1035
e 964 1036
e 964 1037
e 964 1038
e 964 1039
e 964 1040
e 964 1041
e 964 1042
e 964 1043
e 1044 1045
e 1044 1046
e 1044 1047
e 1044 1048
e 1044 1049
e 1044 1050
e 1044 1051
e 1044 1052
e 1044 1053
e 1044 1054
e 1044 1055
e 1044 1056
e 1044 1057
e 1044 1058
e 1044 1059
e 1044 1060
e 1044 1061
e 1044 1062
e 1044 1063
e 1044 1064
e 1044 1065
e 1044 1066
e 1044 1067
e 1044 1068
e 1044 1069
e 1044 1070
e 1044 1071
e 1044 1072
e 1044 1073
e 1044 1074
e 1044 1075
e 1044 1076
e 1044 1077
e 1044 1078
e 1044 1079
e 1044 1080
e 1044 1081
e 1044 1082
e 1044 1083
e 1044 1084
e 1044 1085
e 1044 1086
e 1044 1087
e 1044 1088
e 1044 1089
e 1044 1090
e 1044 1091
e 1044 1092
e 1044 1093
e 1044 1094
e 1044 1095
e 1044 1096
e 1044 1097
e 1044 1098
e 1044 1099
e 1044 1100
e 1044 1101
e 1044 1102
e 1044 1103
e 1044 1104
e 1044 1105
e 1044 1106
e 1044 1107
e 1044 1108
e 1044 1109
e 1044 1110
e 1044 1111
e 1044 1112
e 1044 1113
e 1044 1114
e 1044 1115
e 1044 1116
e 1044 1117
e 1044 1118
e 1044 1119
e 1120 1121
e 1120 1122
e 1120 1123
e 1120 1124
e 1120 1125
e 1120 1126
e 1120 1127
e 1120 1128
e 1120 1129
e 1120 1130
e 1120 1131
e 1120 1132
e 1120 1133
e 1120 1134
e 1135 1136
e 1135 1137
e 1135 1138
e 1135 1139
e 1135 1140
e 1135 1141
e 1135 1142
e 1135 1143
e 1135 1144
e 1135 1145
e 1135 1146
e 1135 1147
e 1135 1148
e 1135 1149
e 1135 1150
e 1135 1151
e 1135 1152
e 1135 1153
e 1135 1154
e 1135 1155
e 1135 1156
e 1135 1157
e 1135 1158
e 1135 1159
e 1135 1160
e 1135 1161
e 1135 1162
e 1163 1164
e 1163 1165
e 1163 1166
e 1163 1167
e 1163 1168
e 1163 1169
e 1163 1170
e 1163 1171
e 1163 1172
e 1163 1173
e 1163 1174
e 1163 1175
e 1163 1176
e 1163 1177
e 1163 1178
e 1163 1179
e 1163 1180
e 1163 1181
e 1163 1182
e 1163 1183
e 1163 1184
e 1163 1185
e 1163 1186
e 1163 1187
e 1163 1188
e 1163 1189
e 1163 1190
e 1163 1191
e 1163 1192
e 1163 1193
e 1163 1194
e 1163 1195
e 1163 1196
e 1163 1197
e 1163 1198
e 1163 1199
e 1163 1200
e 1163 1201
e 1163 1202
e 1163 1203
e 1163 1204
e 1163 1205
e 1163 1206
e 1207 1208
e 1207 1209
e 1207 1210
e 1207 1211
e 1207 1212
e 1207 1213
e 1207 1214
e 1207 1215
e 1207 1216
e 1207 1217
e 1207 1218
e 1207 1219
e 1207 1220
e 1207 1221
e 1207 1222
e 1207 1223
e 1207 1224
e 1207 1225
e 1207 1226
e 1207 1227
e 1207 1228
e 1207 1229
e 1207 1230
e 1207 1231
e 1207 1232
e 1207 1233
e 1207 1234
e 1235 1236
e 1235 1237
e 1235 1238
e 1235 1239
e 1235 1240
e 1235 1241
e 1235 1242
e 1235 1243
e 1235 1244
e 1235 1245
e 1235 1246
e 1235 1247
e 1235 1248
e 1235 1249
e 1235 1250
e 1235 1251
e 1235 1252
e 1235 1253
e 1235 1254
e 1235 1255
e 1235 1256
e 1235 1257
e 1235 1258
e 1235 1259
e 1235 1260
e 1235 1261
e 1235 1262
e 1235 1263
e 1235 1264
e 1235 1265
e 1235 1266
e 1235 1267
e 1235 1268
e 1235 1269
e 1235 1270
e 1235 1271
e 1235 1272
e 1235 1273
e 1235 1274
e 1235 1275
e 1235 1276
e 1235 1277
e 1235 1278
e 1235 1279
e 1235 1280
e 1235 1281
e 1235 1282
e 1235 1283
e 1235 1284
e 1235 1285
e 1235 1286
e 1235 1287
e 1235 1288
e 1235 1289
e 1235 1290
e 1235 1291
e 1235 1292
e 1235 1293
e 1235 1294
e 1235 1295
e 1235 1296
e 1235 1297
e 1235 1298
e 1235 1299
e 1235 1300
e 1235 1301
e 1235 1302
e 1235 1303
e 1235 1304
e 1235 1305
e 1235 1306
e 1235 1307
e 1235 1308
e 1235 1309
e 1235 1310
e 1235 1311
e 1235 1312
e 1235 1313
e 1235 1314
e 1235 1315
e 1235 1316
e 1235 1317
e 1235 1318
e 1235 1319
e 1235 1320
e 1235 1321
e 1235 1322
e 1235 1323
e 1235 1324
e 1235 1325
e 1235 1326
e 1235 1327
e 1235 1328
e 1235 1329
e 1235 1330
e 1235 1331
e 1235 1332
e 1235 1333
e 1334 1335
e 1334 1336
e 1334 1337
e 1334 1338
e 1334 1339
e 1334 1340
e 1334 1341
e 1334 1342
e 1334 1343
e 1334 1344
e 1334 1345
e 1334 1346
e 1334 1347
e 1334 1348
e 1334 1349
e 1334 1350
e 1334 1351
e 1334 1352
e 1334 1353
e 1334 1354
e 1334 1355
e 1334 1356
e 1334 1357
e 1334 1358
e 1334 1359
e 1334 1360
e 1334 1361
e 1334 1362
e 1334 1363
e 1334 1364
e 1334 1365
e 1334 1366
e 1334 1367
e 1334 1368
e 1334 1369
e 1334 1370
e 1334 1371
e 1334 1372
e 1334 1373
e 1334 1374
e 1334 1375
e 1334 1376
e 1334 1377
e 1334 1378
e 1334 1379
e 1334 1380
e 1334 1381
e 1334 1382
e 1334 1383
e 1384 1385
e 1384 1386
e 1384 1387
e 1384 1388
e 1384 1389
e 1384 1390
e 1384 1391
e 1384 1392
e 1384 1393
e 1384 1394
e 1384 1395
e 1384 1396
e 1384 1397
e 1384 1398
e 1384 1399
e 1384 1400
e 1384 1401
e 1384 1402
e 1384 1403
e 1384 1404
e 1384 1405
e 1406 1407
e 1406 1408
e 1406 1409
e 1406 1410
e 1406 1411
e 1406 1412
e 1406 1413
e 1406 1414
e 1406 1415
e 1406 1416
e 1406 1417
e 1406 1418
e 1406 1419
e 1406 1420
e 1406 1421
e 1406 1422
e 1406 1423
e 1406 1424
e 1406 1425
e 1406 1426
e 1406 1427
e 1406 1428
e 1406 1429
e 1406 1430
e 1406 1431
e 1406 1432
e 1406 1433
e 1406 1434
e 1406 1435
e 1406 1436
e 1406 1437
e 1406 1438
e 1406 1439
e 1406 1440
e 1406 1441
e 1406 1442
e 1406 1443
e 1406 1444
e 1406 1445
e 1406 1446
e 1406 1447
e 1406 1448
e 1406 1449
e 1406 1450
e 1406 1451
e 1406 1452
e 1406 1453
e 1406 1454
e 1406 1455
e 1406 1456
e 1406 1457
e 1406 1458
e 1406 1459
e 1406 1460
e 1406 1461
e 1406 1462
e 1406 1463
e 1406 1464
e 1406 1465
e 1406 1466
e 1406 1467
e 1406 1468
e 1406 1469
e 1406 1470
e 1406 1471
e 1406 1472
e 1406 1473
e 1406 1474
e 1406 1475
e 1406 1476
e 1406 1477
e 1406 1478
e 1406 1479
e 1406 1480
e 1406 1481
e 1406 1482
e 1406 1483
e 1406 1484
e 1406 1485
e 1406 1486
e 1406 1487
e 1406 1488
e 1406 1489
e 1406 1490
e 1406 1491
e 1406 1492
e 1406 1493
e 1406 1494
e 1406 1495
e 1406 1496
e 1406 1497
e 1406 1498
e 1406 1499
e 1406 1500
e 1406 1501
e 1406 1502
e 1406 1503
e 1406 1504
e 1406 1505
e 1406 1506
e 1507 1508
e 1507 1509
e 1507 1510
e 1507 1511
e 1507 1512
e 1507 1513
e 1507 1514
e 1507 1515
e 1507 1516
e 1507 1517
e 1507 1518
e 1507 1519
e 1507 1520
e 1507 1521
e 1507 1522
e 1507 1523
e 1507 1524
e 1507 1525
e 1507 1526
e 1507 1527
e 1507 1528
e 1507 1529
e 1507 1530
e 1507 1531
e 1507 1532
e 1507 1533
e 1507 1534
e 1507 1535
e 1507 1536
e 1507 1537
e 1507 1538
e 1507 1539
e 1507 1540
e 1507 1541
e 1507 1542
e 1507 1543
e 1507 1544
e 1507 1545
e 1507 1546
e 1507 1547
e 1507 1548
e 1507 1549
e 1507 1550
e 1507 1551
e 1507 1552
e 1507 1553
e 1507 1554
e 1507 1555
e 1507 1556
e 1507 1557
e 1507 1558
e 1507 1559
e 1507 1560
e 1507 1561
e 1507 1562
e 1507 1563
e 1564 1565
e 1564 1566
e 1564 1567
e 1564 1568
e 1564 1569
e 1564 1570
e 1564 1571
e 1564 1572
e 1564 1573
e 1564 1574
e 1564 1575
e 1564 1576
e 1564 1577
e 1564 1578
e 1564 1579
e 1564 1580
e 1564 1581
e 1564 1582
e 1564 1583
e 1564 1584
e 1564 1585
e 1564 1586
e 1564 1587
e 1564 1588
e 1564 1589
e 1564 1590
e 1564 1591
e 1564 1592
e 1564 1593
e 1564 1594
e 1564 1595
e 1564 1596
e 1564 1597
e 1564 1598
e 1564 1599
e 1564 1600
e 1564 1601
e 1564 1602
e 1564 1603
e 1564 1604
e 1564 1605
e 1564 1606
e 1564 1607
e 1564 1608
e 1564 1609
e 1564 1610
e 1564 1611
e 1564 1612
e 1564 1613
e 1564 1614
e 1564 1615
e 1564 1616
e 1564 1617
e 1564 1618
e 1564 1619
e 1564 1620
e 1564 1621
e 1564 1622
e 1564 1623
e 1564 1624
e 1564 1625
e 1564 1626
e 1564 1627
e 1564 1628
e 1564 1629
e 1564 1630
e 1631 1632
e 1631 1633
e 1631 1634
e 1631 1635
e 1631 1636
e 1631 1637
e 1631 1638
e 1631 1639
e 1631 1640
e 1631 1641
e 1631 1642
e 1631 1643
e 1631 1644
e 1631 1645
e 1631 1646
e 1631 1647
e 1631 1648
e 1631 1649
e 1631 1650
e 1631 1651
e 1631 1652
e 1631 1653
e 1631 1654
e 1631 1655
e 1631 1656
e 1631 1657
e 1631 1658
e 1631 1659
e 1631 1660
e 1631 1661
e 1631 1662
e 1631 1663
e 1631 1664
e 1631 1665
e 1631 1666
e 1631 1667
e 1631 1668
e 1631 1669
e 1631 1670
e 1631 1671
e 1631 1672
e 1631 1673
e 1631 1674
e 1631 1675
e 1631 1676
e 1631 1677
e 1631 1678
e 1631 1679
e 1631 1680
e 1681 1682
e 1681 1683
e 1681 1684
e 1681 1685
e 1681 1686
e 1681 1687
e 1681 1688
e 1681 1689
e 1681 1690
e 1681 1691
e 1681 1692
e 1681 1693
e 1681 1694
e 1681 1695
e 1681 1696
e 1681 1697
e 1681 1698
e 1681 1699
e 1681 1700
e 1681 1701
e 1681 1702
e 1681 1703
e 1681 1704
e 1681 1705
e 1681 1706
e 1681 1707
e 1681 1708
e 1681 1709
e 1681 1710
e 1681 1711
e 1681 1712
e 1681 1713
e 1681 1714
e 1681 1715
e 1681 1716
e 1681 1717
e 1681 1718
e 1681 1719
e 1681 1720
e 1681 1721
e 1681 1722
e 1681 1723
e 1681 1724
e 1681 1725
e 1681 1726
e 1681 1727
e 1681 1728
e 1681 1729
e 1681 1730
e 1681 1731
e 1681 1732
e 1681 1733
e 1681 1734
e 1681 1735
e 1681 1736
e 1681 1737
e 1681 1738
e 1681 1739
e 1681 1740
e 1681 1741
e 1681 1742
e 1681 1743
e 1681 1744
e 1681 1745
e 1681 1746
e 1681 1747
e 1681 1748
e 1681 1749
e 1681 1750
e 1681 1751
e 1752 1753
e 1752 1754
e 1752 1755
e 1752 1756
e 1752 1757
e 1752 1758
e 1752 1759
e 1752 1760
e 1752 1761
e 1752 1762
e 1752 1763
e 1752 1764
e 1752 1765
e 1752 1766
e 1752 1767
e 1752 1768
e 1752 1769
e 1752 1770
e 1752 1771
e 1752 1772
e 1752 1773
e 1752 1774
e 1752 1775
e 1752 1776
e 1752 1777
e 1752 1778
e 1752 1779
e 1752 1780
e 1752 1781
e 1752 1782
e 1752 1783
e 1752 1784
e 1752 1785
e 1752 1786
e 1752 1787
e 1752 1788
e 1789 1790
e 1789 1791
e 1789 1792
e 1789 1793
e 1789 1794
e 1789 1795
e 1789 1796
e 1789 1797
e 1789 1798
e 1789 1799
e 1789 1800
e 1789 1801
e 1789 1802
e 1789 1803
e 1789 1804
e 1789 1805
e 1789 1806
e 1789 1807
e 1789 1808
e 1789 1809
e 1789 1810
e 1789 1811
e 1789 1812
e 1789 1813
e 1789 1814
e 1789 1815
e 1789 1816
e 1789 1817
e 1789 1818
e 1789 1819
e 1789 1820
e 1789 1821
e 1789 1822
e 1789 1823
e 1789 1824
e 1789 1825
e 1789 1826
e 1789 1827
e 1789 1828
e 1789 1829
e 1789 1830
e 1789 1831
e 1789 1832
e 1789 1833
e 1789 1834
e 1789 1835
e 1789 1836
e 1789 1837
e 1789 1838
e 1789 1839
e 1789 1840
e 1789 1841
e 1789 1842
e 1789 1843
e 1789 1844
e 1789 1845
e 1789 1846
e 1789 1847
e 1789 1848
e 1789 1849
e 1789 1850
e 1789 1851
e 1789 1852
e 1789 1853
e 1789 1854
e 1789 1855
e 1789 1856
e 1789 1857
e 1789 1858
e 1789 1859
e 1789 1860
e 1789 1861
e 1862 1863
e 1862 1864
e 1862 1865
e 1862 1866
e 1862 1867
e 1862 1868
e 1862 1869
e 1862 1870
e 1862 1871
e 1862 1872
e 1862 1873
e 1862 1874
e 1862 1875
e 1862 1876
e 1862 1877
e 1862 1878
e 1862 1879
e 1862 1880
e 1862 1881
e 1862 1882
e 1862 1883
e 1862 1884
e 1862 1885
e 1862 1886
e 1862 1887
e 1862 1888
e 1862 1889
e 1862 1890
e 1862 1891
e 1862 1892
e 1862 1893
e 1862 1894
e 1862 1895
e 1862 1896
e 1862 1897
e 1862 1898
e 1862 1899
e 1862 1900
e 1862 1901
e 1862 1902
e 1862 1903
e 1862 1904
e 1862 1905
e 1862 1906
e 1862 1907
e 1862 1908
e 1862 1909
e 1862 1910
e 1862 1911
e 1862 1912
e 1862 1913
e 1862 1914
e 1862 1915
e 1862 1916
e 1862 1917
e 1862 1918
e 1862 1919
e 1862 1920
e 1862 1921
e 1862 1922
e 1862 1923
e 1862 1924
e 1862 1925
e 1862 1926
e 1862 1927
e 1862 1928
e 1862 1929
e 1862 1930
e 1862 1931
e 1862 1932
e 1862 1933
e 1862 1934
e 1862 1935
